牛客/2019牛客暑期多校训练营/数据/9_D_Knapsack Cryptosystem/17.in
36 272956809662583
11065702700130 22131405400260 21897618135949 10130553642886 20261107285772 5688595620977 21507744884840 13169104647157 21350292034498 18698880554248 2407372739359 20633894742581 22014065079971 17586249180779 9582597707950 20319779670243 16509370652602 13049986471640 4815451153755 5331625179741 10120480326877 5474818526780 12866184809188 5812229074474 2081352194505 21053223237837 13908715210416 17166668388119 16758317861230 21371461942610 3507847560372 18695129704928 22058457148943 2522874470569 10476814793805 6234213142998
